$RunGauss
%mem=32GB
%nproc=8
%chk=charges-mkuff.chk
#p PBE1PBE/GenECP SCF(Tight,QC,Restart) Pop(MKUFF)

Nickel ferrate (PBE0/LANL2DZ)

0 1
 Fe       14.5000000000      15.1900000000      14.9000000000
 Fe       10.0000000000      12.6000000000      14.9000000000
 Fe       13.0000000000      14.3300000000      19.7900000000
 Fe       13.0000000000      17.7900000000      14.9000000000
 Fe       16.0000000000      12.6000000000      14.9000000000
 Fe       16.0000000000      16.0600000000      10.0000000000
 Fe       18.9900000000      17.7900000000      14.9000000000
 Fe       10.0000000000      14.3300000000      12.4500000000
 Fe       13.0000000000      16.0600000000      17.3400000000
 Fe       13.0000000000      19.5200000000      12.4500000000
 Fe       16.0000000000      10.8700000000      17.3400000000
 Fe       16.0000000000      14.3300000000      12.4500000000
 Fe       18.9900000000      16.0600000000      17.3400000000
 Fe       11.5000000000      15.1900000000      14.9000000000
 Fe       14.5000000000      16.9200000000      19.7900000000
 Fe       14.5000000000      20.3900000000      14.9000000000
 Fe       14.5000000000      10.0000000000      14.9000000000
 Fe       14.5000000000      13.4600000000      10.0000000000
 Fe       17.5000000000      15.1900000000      14.9000000000
 Ni       13.0000000000      12.6000000000      16.7300000000
 Ni       13.0000000000      16.0600000000      11.8400000000
 Ni       16.0000000000      17.7900000000      16.7300000000
 Ni       13.0000000000      12.6000000000      13.0600000000
 Ni       16.0000000000      14.3300000000      17.9600000000
 Ni       16.0000000000      17.7900000000      13.0600000000
 O        11.6100000000      16.8600000000      16.0800000000
 O        14.6100000000      11.6700000000      16.0800000000
 O        14.6100000000      15.1300000000      11.1800000000
 O        17.6000000000      16.8600000000      16.0800000000
 O        13.0000000000      14.4500000000      16.0800000000
 O        13.0000000000      17.9200000000      11.1800000000
 O        16.0000000000      19.6500000000      16.0800000000
 O        16.0000000000      12.7200000000      11.1800000000
 O        18.9900000000      14.4500000000      16.0800000000
 O        13.0000000000      12.6000000000      18.7000000000
 O        13.0000000000      16.0600000000      13.8100000000
 O        16.0000000000      17.7900000000      18.7000000000
 O        16.0000000000      10.8700000000      13.8100000000
 O        18.9900000000      16.0600000000      13.8100000000
 O        11.3900000000      11.6700000000      16.0800000000
 O        11.3900000000      15.1300000000      11.1800000000
 O        14.3900000000      16.8600000000      16.0800000000
 O        17.3900000000      11.6700000000      16.0800000000
 O        17.3900000000      15.1300000000      11.1800000000
 O        11.3900000000      13.5200000000      13.7200000000
 O        14.3900000000      15.2600000000      18.6100000000
 O        14.3900000000      18.7200000000      13.7200000000
 O        17.3900000000      13.5200000000      13.7200000000
 O        10.0000000000      15.9300000000      13.7200000000
 O        13.0000000000      17.6600000000      18.6100000000
 O        13.0000000000      10.7400000000      13.7200000000
 O        16.0000000000      12.4700000000      18.6100000000
 O        16.0000000000      15.9300000000      13.7200000000
 O        10.0000000000      14.3300000000      15.9900000000
 O        13.0000000000      19.5200000000      15.9900000000
 O        13.0000000000      12.6000000000      11.0900000000
 O        16.0000000000      14.3300000000      15.9900000000
 O        16.0000000000      17.7900000000      11.0900000000
 O        11.6100000000      15.2600000000      18.6100000000
 O        11.6100000000      18.7200000000      13.7200000000
 O        14.6100000000      13.5200000000      13.7200000000
 O        17.6000000000      15.2600000000      18.6100000000
 O        17.6000000000      18.7200000000      13.7200000000

O     0
S    7   1.00
   7817.0000000              0.0011760
   1176.0000000              0.0089680
    273.2000000              0.0428680
     81.1700000              0.1439300
     27.1800000              0.3556300
      9.5320000              0.4612480
      3.4140000              0.1402060
S    2   1.00
      9.5320000             -0.1541530
      0.9398000              1.0569140
S    1   1.00
      0.2846000              1.0000000
P    4   1.00
     35.1800000              0.0195800
      7.9040000              0.1242000
      2.3050000              0.3947140
      0.7171000              0.6273760
P    1   1.00
      0.2137000              1.0000000
****
Fe     0
S    3   1.00
      6.4220000             -0.3927882
      1.8260000              0.7712643
      0.7135000              0.4920228
S    4   1.00
      6.4220000              0.1786877
      1.8260000             -0.4194032
      0.7135000             -0.4568185
      0.1021000              1.1035048
S    1   1.00
      0.0363000              1.0000000
P    3   1.00
     19.4800000             -0.0470282
      2.3890000              0.6248841
      0.7795000              0.4722542
P    1   1.00
      0.0740000              1.0000000
P    1   1.00
      0.0220000              1.0000000
D    4   1.00
     37.0800000              0.0329000
     10.1000000              0.1787418
      3.2200000              0.4487657
      0.9628000              0.5876361
D    1   1.00
      0.2262000              1.0000000
****
Ni     0
S    3   1.00
      7.6200000             -0.4082550
      2.2940000              0.7455308
      0.8760000              0.5325721
S    4   1.00
      7.6200000              0.1872591
      2.2940000             -0.3966964
      0.8760000             -0.4954003
      0.1153000              1.0844343
S    1   1.00
      0.0396000              1.0000000
P    3   1.00
     23.6600000             -0.0481558
      2.8930000              0.6258473
      0.9435000              0.4715158
P    1   1.00
      0.0840000              1.0000000
P    1   1.00
      0.0240000              1.0000000
D    4   1.00
     42.7200000              0.0372699
     11.7600000              0.1956103
      3.8170000              0.4561273
      1.1690000              0.5621587
D    1   1.00
      0.2836000              1.0000000
****

FE     0
FE-ECP     2     10
d potential
  3
1    392.6149787            -10.0000000
2     71.1756979            -63.2667518
2     17.7320281            -10.9613338
s-d potential
  5
0    126.0571895              3.0000000
1    138.1264251             18.1729137
2     54.2098858            339.1231164
2      9.2837966            317.1068012
2      8.6289082           -207.3421649
p-d potential
  5
0     83.1759490              5.0000000
1    106.0559938              5.9535930
2     42.8284937            294.2665527
2      8.7701805            154.4244635
2      8.0397818            -95.3164249
NI     0
NI-ECP     2     10
d potential
  3
1    469.9324331            -10.0000000
2     85.4236411            -69.4084805
2     21.2674984            -12.0951020
s-d potential
  4
0    162.1686097              3.0000000
1    176.5333232             22.0253618
2     68.9562010            443.0181088
2     13.5792838            145.5696411
p-d potential
  4
0     69.0181506              5.0000000
1    275.5955596              4.9882824
2     47.1315453            256.6945853
2     12.9874075             78.4754450


