$RunGauss
%mem=32GB
%nproc=8
#p PBE1PBE/GenECP SCF(Tight,XQC,MaxCycle=500,MaxConventional=20) Scan

Nickel ferrate (PBE0/LANL2DZ)

-4 1
ni
 o  1  r    
 o  1  r  2  109.471   
 o  1  r  3  109.471  2 -120.0
 o  1  r  4  109.471  3  120.0
 
r  1.5 170 0.05

O     0
S    7   1.00
   7817.0000000              0.0011760
   1176.0000000              0.0089680
    273.2000000              0.0428680
     81.1700000              0.1439300
     27.1800000              0.3556300
      9.5320000              0.4612480
      3.4140000              0.1402060
S    2   1.00
      9.5320000             -0.1541530
      0.9398000              1.0569140
S    1   1.00
      0.2846000              1.0000000
P    4   1.00
     35.1800000              0.0195800
      7.9040000              0.1242000
      2.3050000              0.3947140
      0.7171000              0.6273760
P    1   1.00
      0.2137000              1.0000000
****
Ni     0
S    3   1.00
      7.6200000             -0.4082550
      2.2940000              0.7455308
      0.8760000              0.5325721
S    4   1.00
      7.6200000              0.1872591
      2.2940000             -0.3966964
      0.8760000             -0.4954003
      0.1153000              1.0844343
S    1   1.00
      0.0396000              1.0000000
P    3   1.00
     23.6600000             -0.0481558
      2.8930000              0.6258473
      0.9435000              0.4715158
P    1   1.00
      0.0840000              1.0000000
P    1   1.00
      0.0240000              1.0000000
D    4   1.00
     42.7200000              0.0372699
     11.7600000              0.1956103
      3.8170000              0.4561273
      1.1690000              0.5621587
D    1   1.00
      0.2836000              1.0000000
****

NI     0
NI-ECP     2     10
d potential
  3
1    469.9324331            -10.0000000
2     85.4236411            -69.4084805
2     21.2674984            -12.0951020
s-d potential
  4
0    162.1686097              3.0000000
1    176.5333232             22.0253618
2     68.9562010            443.0181088
2     13.5792838            145.5696411
p-d potential
  4
0     69.0181506              5.0000000
1    275.5955596              4.9882824
2     47.1315453            256.6945853
2     12.9874075             78.4754450


